Ga N 
 1.0
  3.216290130000000   0.000000000000000   0.000000000000000
 -1.608145067916853   2.785388956837109   0.000000000000000
  0.000000000000000   0.000000000000001   5.239962460000000
   2   2
Direct
  0.666666666666667   0.333333333333333   0.499120000000000 
  0.333333333333333   0.666666666666667   0.999120000000000 
  0.666666666666667   0.333333333333333   0.875880000000000 
  0.333333333333333   0.666666666666667   0.375880000000000 
